problems/VanDerWaerdenNumbers/VanDerWaerden-models/compact/O2/lingeling/model_1-k3l4n53-solution000001.solution
language Essence 1.3

letting p be
        partition({1, 4, 7, 15, 16, 17, 19, 22, 28, 29, 30, 32, 33, 35, 42, 44, 45, 47, 48, 50},
                  {2, 3, 10, 11, 12, 20, 21, 23, 27, 31, 37, 38, 39, 43, 46, 53},
                  {5, 6, 8, 9, 13, 14, 18, 24, 25, 26, 34, 36, 40, 41, 49, 51, 52})
